c "349457.clq"
p edge 120 464
e 1 5
e 1 17
e 1 30
e 1 69
e 2 5
e 2 6
e 2 7
e 2 8
e 2 11
e 2 18
e 2 23
e 2 28
e 2 45
e 2 56
e 2 83
e 2 96
e 2 101
e 2 118
e 3 5
e 3 6
e 3 7
e 3 13
e 3 20
e 3 24
e 3 28
e 3 48
e 3 67
e 3 73
e 3 76
e 3 94
e 3 97
e 3 98
e 3 106
e 4 5
e 4 6
e 4 8
e 4 24
e 4 29
e 4 36
e 4 47
e 4 68
e 4 80
e 4 91
e 4 96
e 4 100
e 5 6
e 5 7
e 5 9
e 5 10
e 5 11
e 5 12
e 5 15
e 5 16
e 5 17
e 5 18
e 5 20
e 5 21
e 5 23
e 5 24
e 5 29
e 5 31
e 5 32
e 5 33
e 5 35
e 5 37
e 5 40
e 5 42
e 5 45
e 5 46
e 5 49
e 5 53
e 5 57
e 5 63
e 5 64
e 5 65
e 5 75
e 5 86
e 5 88
e 5 89
e 5 93
e 5 96
e 5 103
e 5 104
e 5 107
e 5 111
e 5 119
e 6 7
e 6 8
e 6 9
e 6 11
e 6 13
e 6 14
e 6 15
e 6 18
e 6 19
e 6 20
e 6 21
e 6 22
e 6 25
e 6 26
e 6 27
e 6 29
e 6 30
e 6 31
e 6 32
e 6 33
e 6 34
e 6 39
e 6 47
e 6 52
e 6 57
e 6 60
e 6 67
e 6 70
e 6 73
e 6 75
e 6 81
e 6 82
e 6 85
e 6 89
e 6 93
e 6 104
e 6 105
e 6 108
e 6 111
e 6 112
e 7 8
e 7 9
e 7 10
e 7 13
e 7 14
e 7 15
e 7 17
e 7 19
e 7 21
e 7 23
e 7 25
e 7 27
e 7 28
e 7 32
e 7 35
e 7 40
e 7 41
e 7 45
e 7 46
e 7 49
e 7 51
e 7 57
e 7 59
e 7 72
e 7 76
e 7 87
e 7 97
e 7 101
e 7 102
e 7 106
e 7 108
e 7 109
e 7 117
e 8 9
e 8 10
e 8 12
e 8 16
e 8 19
e 8 34
e 8 35
e 8 36
e 8 43
e 8 58
e 8 66
e 8 81
e 8 105
e 9 10
e 9 14
e 9 15
e 9 16
e 9 18
e 9 22
e 9 25
e 9 30
e 9 43
e 9 44
e 9 46
e 9 48
e 9 70
e 9 84
e 9 94
e 9 109
e 9 119
e 10 11
e 10 12
e 10 14
e 10 17
e 10 23
e 10 29
e 10 32
e 10 35
e 10 38
e 10 41
e 10 46
e 10 56
e 10 64
e 10 69
e 10 75
e 10 96
e 10 106
e 10 113
e 10 115
e 11 12
e 11 40
e 11 52
e 11 73
e 11 87
e 11 92
e 11 105
e 12 13
e 12 42
e 12 55
e 12 60
e 12 92
e 12 104
e 12 120
e 13 30
e 13 33
e 13 65
e 13 88
e 13 91
e 14 20
e 14 27
e 14 66
e 14 81
e 14 88
e 14 98
e 15 16
e 15 19
e 15 22
e 15 24
e 15 48
e 15 62
e 15 63
e 15 64
e 15 67
e 15 81
e 15 82
e 15 84
e 15 99
e 15 108
e 16 21
e 16 22
e 16 26
e 16 34
e 16 37
e 16 51
e 16 58
e 16 87
e 16 88
e 16 99
e 16 119
e 17 42
e 17 44
e 17 51
e 17 52
e 17 61
e 17 74
e 17 79
e 17 86
e 17 95
e 17 107
e 17 113
e 17 116
e 18 33
e 18 43
e 18 67
e 18 109
e 19 25
e 19 61
e 19 72
e 19 74
e 20 31
e 20 43
e 20 48
e 20 49
e 20 102
e 21 50
e 21 71
e 21 74
e 21 83
e 21 107
e 22 27
e 22 34
e 22 42
e 22 53
e 22 77
e 22 95
e 22 101
e 23 53
e 24 26
e 24 28
e 24 36
e 24 47
e 24 56
e 24 78
e 24 99
e 25 26
e 25 31
e 25 36
e 25 38
e 25 41
e 25 62
e 25 76
e 25 82
e 25 114
e 26 50
e 26 59
e 26 80
e 26 114
e 27 86
e 27 90
e 28 92
e 29 52
e 29 108
e 30 37
e 30 38
e 30 44
e 30 50
e 30 54
e 30 71
e 31 38
e 31 39
e 31 41
e 32 39
e 32 54
e 32 68
e 32 110
e 33 59
e 33 61
e 34 37
e 34 95
e 35 55
e 35 100
e 36 47
e 36 93
e 36 100
e 36 116
e 37 44
e 37 65
e 38 39
e 38 40
e 38 45
e 38 50
e 38 59
e 38 78
e 38 85
e 38 86
e 38 115
e 38 116
e 40 65
e 40 72
e 41 58
e 41 105
e 41 110
e 42 58
e 42 68
e 42 80
e 42 90
e 42 112
e 43 54
e 43 97
e 44 56
e 44 63
e 44 69
e 44 71
e 44 74
e 44 78
e 44 89
e 44 93
e 44 95
e 44 98
e 45 54
e 45 60
e 45 63
e 45 66
e 45 83
e 45 119
e 46 49
e 46 85
e 46 91
e 46 103
e 47 61
e 47 115
e 48 55
e 48 78
e 48 79
e 48 85
e 49 51
e 49 62
e 49 77
e 49 94
e 49 110
e 49 120
e 50 53
e 50 94
e 50 99
e 51 62
e 52 55
e 52 82
e 52 87
e 53 80
e 54 69
e 55 70
e 56 57
e 56 60
e 56 64
e 56 70
e 56 71
e 56 79
e 56 102
e 56 112
e 57 66
e 57 109
e 58 113
e 59 77
e 59 97
e 60 77
e 60 110
e 62 68
e 62 79
e 62 115
e 62 116
e 62 117
e 63 73
e 64 76
e 64 102
e 66 75
e 69 92
e 69 117
e 70 72
e 72 89
e 73 84
e 73 112
e 75 84
e 78 106
e 80 83
e 80 90
e 80 117
e 81 113
e 82 91
e 82 111
e 87 104
e 88 100
e 89 90
e 90 114
e 92 101
e 92 120
e 93 98
e 94 114
e 96 120
e 101 103
e 102 103
e 103 107
e 107 118
e 109 111
e 111 118
e 112 118
